data; 
set V := 1 2 3 4 5 6;
set K := 1 2;
set T := 3 4 5 6;

param C :=
1 18
2 26 ;

param COST:
    1   2     3       4      5     6 :=
1  -1   -1    5032   5028   5025  5073
2  -1   -1    5070   5067   5026  5047
3  5023 5019  -1     -1     138   248
4 5052  5059  -1     -1     332   212
5 5061  5062  -1     -1     -1    84
6 5053  5023  -1     -1     -1    -1 ;

end;
